
ACE v2.1 

  instance
    name:PyCSP

  Loading variables...

  Loading constraints...

  domains
    types:1  values:180  sizes:[2:90]
  variables
    count:90  arrays:1  degrees:[75:4,76:30,77:56]
  constraints
    count:1646  specific:26  groups:2  arities:[4:1620,10:9,18:9,20:8]
    distribution:[Cardinality:9,ConstraintIntension:1620,LexicographicLE:17]
    intStructures:(1,shared:1619)
    wck:1.09  cpu:1.812  mem:80M503

  Building solver... 

  solver
    guaranteedAC:true
    wck:1.16  cpu:1.843  mem:10M225

  preprocessing
    revisions:(6480,useless=6480)  values:180  unsat:false
    wck:0.04  cpu:1.859  mem:10M225

    run0  dpts:0..5  effs:38  fails:1  wrgs:7  wck:0.00

  global
    effs:38  revisions:(13067,useless=13057)
    stop:FULL_EXPLORATION  wrgs:7
    wck:1.21  cpu:1.859  mem:10M748

s UNSATISFIABLE

d WRONG DECISIONS 7
d FOUND SOLUTIONS 0
d COMPLETE EXPLORATION

c real time : 1.859
